c turning on binary mode checking
c parsing input formula with 259840 variables and 1039934 clauses
c finished parsing, read 3201575 bytes from proof file
c detected empty clause; start verification via backward checking
c 10584 of 1039934 clauses in core                            
c 3306 of 118561 lemmas in core using 109003 resolution steps
c 0 RAT lemmas in core; 734 redundant literals in core lemmas
s VERIFIED
c verification time: 1.591 seconds
